161
0 43 33 73 13 147 3 115 96 1 
2 41 62 112 99 7 123 67 122 12 
70 35 136 87 59 65 28 72 52 61 
130 57 81 53 37 64 86 104 100 149 
114 40 90 94 151 119 113 95 117 50 
44 93 103 19 80 22 9 142 88 32 
74 111 128 160 121 98 134 126 129 11 
150 66 71 82 140 85 120 143 4 137 
155 27 29 138 15 131 54 24 25 145 
158 135 106 105 46 23 101 127 75 10 
20 31 16 125 108 48 118 92 84 42 
91 8 107 157 109 102 38 116 83 55 
141 69 154 63 5 144 132 30 26 6 
76 36 139 124 78 152 159 77 51 110 
49 133 47 21 58 153 56 39 45 89 
148 14 79 60 97 34 17 68 156 18 
146 
